\ LP format - for model browsing. Use MPS format to capture full model detail.
Maximize
  x0,1_6 + x0,1_11 + x0,1_20 + x0,1_23 + x0,1_36 + x0,1_59 + x0,1_60
   + x0,1_65 + x0,1_76 + x0,2_6 + x0,2_11 + x0,2_20 + x0,2_23 + x0,2_36
   + x0,2_59 + x0,2_60 + x0,2_65 + x0,2_76 + x0,3_6 + x0,3_11 + x0,3_20
   + x0,3_23 + x0,3_36 + x0,3_59 + x0,3_60 + x0,3_65 + x0,3_76 + x0,4_6
   + x0,4_11 + x0,4_20 + x0,4_23 + x0,4_36 + x0,4_59 + x0,4_60 + x0,4_65
   + x0,4_76 + x0,5_6 + x0,5_11 + x0,5_20 + x0,5_23 + x0,5_36 + x0,5_59
   + x0,5_60 + x0,5_65 + x0,5_76 + x1,2_6 + x1,2_11 + x1,2_20 + x1,2_23
   + x1,2_36 + x1,2_59 + x1,2_60 + x1,2_65 + x1,2_76 + x1,3_6 + x1,3_11
   + x1,3_20 + x1,3_23 + x1,3_36 + x1,3_59 + x1,3_60 + x1,3_65 + x1,3_76
   + x1,4_6 + x1,4_11 + x1,4_20 + x1,4_23 + x1,4_36 + x1,4_59 + x1,4_60
   + x1,4_65 + x1,4_76 + x1,5_6 + x1,5_11 + x1,5_20 + x1,5_23 + x1,5_36
   + x1,5_59 + x1,5_60 + x1,5_65 + x1,5_76 + x2,3_6 + x2,3_11 + x2,3_20
   + x2,3_23 + x2,3_36 + x2,3_59 + x2,3_60 + x2,3_65 + x2,3_76 + x2,4_6
   + x2,4_11 + x2,4_20 + x2,4_23 + x2,4_36 + x2,4_59 + x2,4_60 + x2,4_65
   + x2,4_76 + x2,5_6 + x2,5_11 + x2,5_20 + x2,5_23 + x2,5_36 + x2,5_59
   + x2,5_60 + x2,5_65 + x2,5_76 + x3,4_6 + x3,4_11 + x3,4_20 + x3,4_23
   + x3,4_36 + x3,4_59 + x3,4_60 + x3,4_65 + x3,4_76 + x3,5_6 + x3,5_11
   + x3,5_20 + x3,5_23 + x3,5_36 + x3,5_59 + x3,5_60 + x3,5_65 + x3,5_76
   + x4,5_6 + x4,5_11 + x4,5_20 + x4,5_23 + x4,5_36 + x4,5_59 + x4,5_60
   + x4,5_65 + x4,5_76
Subject To
 R0: x0,1_6 + x0,2_6 + x0,3_6 + x0,4_6 + x0,5_6 + x1,2_6 + x1,3_6 + x1,4_6
   + x1,5_6 + x2,3_6 + x2,4_6 + x2,5_6 + x3,4_6 + x3,5_6 + x4,5_6 <= 1
 R1: x0,1_11 + x0,2_11 + x0,3_11 + x0,4_11 + x0,5_11 + x1,2_11 + x1,3_11
   + x1,4_11 + x1,5_11 + x2,3_11 + x2,4_11 + x2,5_11 + x3,4_11 + x3,5_11
   + x4,5_11 <= 1
 R2: x0,1_20 + x0,2_20 + x0,3_20 + x0,4_20 + x0,5_20 + x1,2_20 + x1,3_20
   + x1,4_20 + x1,5_20 + x2,3_20 + x2,4_20 + x2,5_20 + x3,4_20 + x3,5_20
   + x4,5_20 <= 1
 R3: x0,1_23 + x0,2_23 + x0,3_23 + x0,4_23 + x0,5_23 + x1,2_23 + x1,3_23
   + x1,4_23 + x1,5_23 + x2,3_23 + x2,4_23 + x2,5_23 + x3,4_23 + x3,5_23
   + x4,5_23 <= 1
 R4: x0,1_36 + x0,2_36 + x0,3_36 + x0,4_36 + x0,5_36 + x1,2_36 + x1,3_36
   + x1,4_36 + x1,5_36 + x2,3_36 + x2,4_36 + x2,5_36 + x3,4_36 + x3,5_36
   + x4,5_36 <= 1
 R5: x0,1_59 + x0,2_59 + x0,3_59 + x0,4_59 + x0,5_59 + x1,2_59 + x1,3_59
   + x1,4_59 + x1,5_59 + x2,3_59 + x2,4_59 + x2,5_59 + x3,4_59 + x3,5_59
   + x4,5_59 <= 1
 R6: x0,1_60 + x0,2_60 + x0,3_60 + x0,4_60 + x0,5_60 + x1,2_60 + x1,3_60
   + x1,4_60 + x1,5_60 + x2,3_60 + x2,4_60 + x2,5_60 + x3,4_60 + x3,5_60
   + x4,5_60 <= 1
 R7: x0,1_65 + x0,2_65 + x0,3_65 + x0,4_65 + x0,5_65 + x1,2_65 + x1,3_65
   + x1,4_65 + x1,5_65 + x2,3_65 + x2,4_65 + x2,5_65 + x3,4_65 + x3,5_65
   + x4,5_65 <= 1
 R8: x0,1_76 + x0,2_76 + x0,3_76 + x0,4_76 + x0,5_76 + x1,2_76 + x1,3_76
   + x1,4_76 + x1,5_76 + x2,3_76 + x2,4_76 + x2,5_76 + x3,4_76 + x3,5_76
   + x4,5_76 <= 1
 R9: x0,1_6 + x0,1_11 + x0,1_20 + x0,1_23 + x0,1_36 + x0,1_59 + x0,1_60
   + x0,1_65 + x0,1_76 <= 1
 R10: x0,2_6 + x0,2_11 + x0,2_20 + x0,2_23 + x0,2_36 + x0,2_59 + x0,2_60
   + x0,2_65 + x0,2_76 <= 1
 R11: x0,3_6 + x0,3_11 + x0,3_20 + x0,3_23 + x0,3_36 + x0,3_59 + x0,3_60
   + x0,3_65 + x0,3_76 <= 1
 R12: x0,4_6 + x0,4_11 + x0,4_20 + x0,4_23 + x0,4_36 + x0,4_59 + x0,4_60
   + x0,4_65 + x0,4_76 <= 1
 R13: x0,5_6 + x0,5_11 + x0,5_20 + x0,5_23 + x0,5_36 + x0,5_59 + x0,5_60
   + x0,5_65 + x0,5_76 <= 1
 R14: x1,2_6 + x1,2_11 + x1,2_20 + x1,2_23 + x1,2_36 + x1,2_59 + x1,2_60
   + x1,2_65 + x1,2_76 <= 1
 R15: x1,3_6 + x1,3_11 + x1,3_20 + x1,3_23 + x1,3_36 + x1,3_59 + x1,3_60
   + x1,3_65 + x1,3_76 <= 1
 R16: x1,4_6 + x1,4_11 + x1,4_20 + x1,4_23 + x1,4_36 + x1,4_59 + x1,4_60
   + x1,4_65 + x1,4_76 <= 1
 R17: x1,5_6 + x1,5_11 + x1,5_20 + x1,5_23 + x1,5_36 + x1,5_59 + x1,5_60
   + x1,5_65 + x1,5_76 <= 1
 R18: x2,3_6 + x2,3_11 + x2,3_20 + x2,3_23 + x2,3_36 + x2,3_59 + x2,3_60
   + x2,3_65 + x2,3_76 <= 1
 R19: x2,4_6 + x2,4_11 + x2,4_20 + x2,4_23 + x2,4_36 + x2,4_59 + x2,4_60
   + x2,4_65 + x2,4_76 <= 1
 R20: x2,5_6 + x2,5_11 + x2,5_20 + x2,5_23 + x2,5_36 + x2,5_59 + x2,5_60
   + x2,5_65 + x2,5_76 <= 1
 R21: x3,4_6 + x3,4_11 + x3,4_20 + x3,4_23 + x3,4_36 + x3,4_59 + x3,4_60
   + x3,4_65 + x3,4_76 <= 1
 R22: x3,5_6 + x3,5_11 + x3,5_20 + x3,5_23 + x3,5_36 + x3,5_59 + x3,5_60
   + x3,5_65 + x3,5_76 <= 1
 R23: x4,5_6 + x4,5_11 + x4,5_20 + x4,5_23 + x4,5_36 + x4,5_59 + x4,5_60
   + x4,5_65 + x4,5_76 <= 1
 R24: p0 - p1 <= -1
 R25: - 6 x0,1_6 - p0 + p1 >= 0
 R26: 356 x0,1_6 - p0 + p1 <= 362
 R27: - 11 x0,1_11 - p0 + p1 >= 0
 R28: 356 x0,1_11 - p0 + p1 <= 367
 R29: - 20 x0,1_20 - p0 + p1 >= 0
 R30: 356 x0,1_20 - p0 + p1 <= 376
 R31: - 23 x0,1_23 - p0 + p1 >= 0
 R32: 356 x0,1_23 - p0 + p1 <= 379
 R33: - 36 x0,1_36 - p0 + p1 >= 0
 R34: 356 x0,1_36 - p0 + p1 <= 392
 R35: - 59 x0,1_59 - p0 + p1 >= 0
 R36: 356 x0,1_59 - p0 + p1 <= 415
 R37: - 60 x0,1_60 - p0 + p1 >= 0
 R38: 356 x0,1_60 - p0 + p1 <= 416
 R39: - 65 x0,1_65 - p0 + p1 >= 0
 R40: 356 x0,1_65 - p0 + p1 <= 421
 R41: - 76 x0,1_76 - p0 + p1 >= 0
 R42: 356 x0,1_76 - p0 + p1 <= 432
 R43: p0 - p2 <= -1
 R44: - 6 x0,2_6 - p0 + p2 >= 0
 R45: 356 x0,2_6 - p0 + p2 <= 362
 R46: - 11 x0,2_11 - p0 + p2 >= 0
 R47: 356 x0,2_11 - p0 + p2 <= 367
 R48: - 20 x0,2_20 - p0 + p2 >= 0
 R49: 356 x0,2_20 - p0 + p2 <= 376
 R50: - 23 x0,2_23 - p0 + p2 >= 0
 R51: 356 x0,2_23 - p0 + p2 <= 379
 R52: - 36 x0,2_36 - p0 + p2 >= 0
 R53: 356 x0,2_36 - p0 + p2 <= 392
 R54: - 59 x0,2_59 - p0 + p2 >= 0
 R55: 356 x0,2_59 - p0 + p2 <= 415
 R56: - 60 x0,2_60 - p0 + p2 >= 0
 R57: 356 x0,2_60 - p0 + p2 <= 416
 R58: - 65 x0,2_65 - p0 + p2 >= 0
 R59: 356 x0,2_65 - p0 + p2 <= 421
 R60: - 76 x0,2_76 - p0 + p2 >= 0
 R61: 356 x0,2_76 - p0 + p2 <= 432
 R62: p0 - p3 <= -1
 R63: - 6 x0,3_6 - p0 + p3 >= 0
 R64: 356 x0,3_6 - p0 + p3 <= 362
 R65: - 11 x0,3_11 - p0 + p3 >= 0
 R66: 356 x0,3_11 - p0 + p3 <= 367
 R67: - 20 x0,3_20 - p0 + p3 >= 0
 R68: 356 x0,3_20 - p0 + p3 <= 376
 R69: - 23 x0,3_23 - p0 + p3 >= 0
 R70: 356 x0,3_23 - p0 + p3 <= 379
 R71: - 36 x0,3_36 - p0 + p3 >= 0
 R72: 356 x0,3_36 - p0 + p3 <= 392
 R73: - 59 x0,3_59 - p0 + p3 >= 0
 R74: 356 x0,3_59 - p0 + p3 <= 415
 R75: - 60 x0,3_60 - p0 + p3 >= 0
 R76: 356 x0,3_60 - p0 + p3 <= 416
 R77: - 65 x0,3_65 - p0 + p3 >= 0
 R78: 356 x0,3_65 - p0 + p3 <= 421
 R79: - 76 x0,3_76 - p0 + p3 >= 0
 R80: 356 x0,3_76 - p0 + p3 <= 432
 R81: p0 - p4 <= -1
 R82: - 6 x0,4_6 - p0 + p4 >= 0
 R83: 356 x0,4_6 - p0 + p4 <= 362
 R84: - 11 x0,4_11 - p0 + p4 >= 0
 R85: 356 x0,4_11 - p0 + p4 <= 367
 R86: - 20 x0,4_20 - p0 + p4 >= 0
 R87: 356 x0,4_20 - p0 + p4 <= 376
 R88: - 23 x0,4_23 - p0 + p4 >= 0
 R89: 356 x0,4_23 - p0 + p4 <= 379
 R90: - 36 x0,4_36 - p0 + p4 >= 0
 R91: 356 x0,4_36 - p0 + p4 <= 392
 R92: - 59 x0,4_59 - p0 + p4 >= 0
 R93: 356 x0,4_59 - p0 + p4 <= 415
 R94: - 60 x0,4_60 - p0 + p4 >= 0
 R95: 356 x0,4_60 - p0 + p4 <= 416
 R96: - 65 x0,4_65 - p0 + p4 >= 0
 R97: 356 x0,4_65 - p0 + p4 <= 421
 R98: - 76 x0,4_76 - p0 + p4 >= 0
 R99: 356 x0,4_76 - p0 + p4 <= 432
 R100: p0 - p5 <= -1
 R101: - 6 x0,5_6 - p0 + p5 >= 0
 R102: 356 x0,5_6 - p0 + p5 <= 362
 R103: - 11 x0,5_11 - p0 + p5 >= 0
 R104: 356 x0,5_11 - p0 + p5 <= 367
 R105: - 20 x0,5_20 - p0 + p5 >= 0
 R106: 356 x0,5_20 - p0 + p5 <= 376
 R107: - 23 x0,5_23 - p0 + p5 >= 0
 R108: 356 x0,5_23 - p0 + p5 <= 379
 R109: - 36 x0,5_36 - p0 + p5 >= 0
 R110: 356 x0,5_36 - p0 + p5 <= 392
 R111: - 59 x0,5_59 - p0 + p5 >= 0
 R112: 356 x0,5_59 - p0 + p5 <= 415
 R113: - 60 x0,5_60 - p0 + p5 >= 0
 R114: 356 x0,5_60 - p0 + p5 <= 416
 R115: - 65 x0,5_65 - p0 + p5 >= 0
 R116: 356 x0,5_65 - p0 + p5 <= 421
 R117: - 76 x0,5_76 - p0 + p5 >= 0
 R118: 356 x0,5_76 - p0 + p5 <= 432
 R119: p1 - p2 <= -1
 R120: - 6 x1,2_6 - p1 + p2 >= 0
 R121: 356 x1,2_6 - p1 + p2 <= 362
 R122: - 11 x1,2_11 - p1 + p2 >= 0
 R123: 356 x1,2_11 - p1 + p2 <= 367
 R124: - 20 x1,2_20 - p1 + p2 >= 0
 R125: 356 x1,2_20 - p1 + p2 <= 376
 R126: - 23 x1,2_23 - p1 + p2 >= 0
 R127: 356 x1,2_23 - p1 + p2 <= 379
 R128: - 36 x1,2_36 - p1 + p2 >= 0
 R129: 356 x1,2_36 - p1 + p2 <= 392
 R130: - 59 x1,2_59 - p1 + p2 >= 0
 R131: 356 x1,2_59 - p1 + p2 <= 415
 R132: - 60 x1,2_60 - p1 + p2 >= 0
 R133: 356 x1,2_60 - p1 + p2 <= 416
 R134: - 65 x1,2_65 - p1 + p2 >= 0
 R135: 356 x1,2_65 - p1 + p2 <= 421
 R136: - 76 x1,2_76 - p1 + p2 >= 0
 R137: 356 x1,2_76 - p1 + p2 <= 432
 R138: p1 - p3 <= -1
 R139: - 6 x1,3_6 - p1 + p3 >= 0
 R140: 356 x1,3_6 - p1 + p3 <= 362
 R141: - 11 x1,3_11 - p1 + p3 >= 0
 R142: 356 x1,3_11 - p1 + p3 <= 367
 R143: - 20 x1,3_20 - p1 + p3 >= 0
 R144: 356 x1,3_20 - p1 + p3 <= 376
 R145: - 23 x1,3_23 - p1 + p3 >= 0
 R146: 356 x1,3_23 - p1 + p3 <= 379
 R147: - 36 x1,3_36 - p1 + p3 >= 0
 R148: 356 x1,3_36 - p1 + p3 <= 392
 R149: - 59 x1,3_59 - p1 + p3 >= 0
 R150: 356 x1,3_59 - p1 + p3 <= 415
 R151: - 60 x1,3_60 - p1 + p3 >= 0
 R152: 356 x1,3_60 - p1 + p3 <= 416
 R153: - 65 x1,3_65 - p1 + p3 >= 0
 R154: 356 x1,3_65 - p1 + p3 <= 421
 R155: - 76 x1,3_76 - p1 + p3 >= 0
 R156: 356 x1,3_76 - p1 + p3 <= 432
 R157: p1 - p4 <= -1
 R158: - 6 x1,4_6 - p1 + p4 >= 0
 R159: 356 x1,4_6 - p1 + p4 <= 362
 R160: - 11 x1,4_11 - p1 + p4 >= 0
 R161: 356 x1,4_11 - p1 + p4 <= 367
 R162: - 20 x1,4_20 - p1 + p4 >= 0
 R163: 356 x1,4_20 - p1 + p4 <= 376
 R164: - 23 x1,4_23 - p1 + p4 >= 0
 R165: 356 x1,4_23 - p1 + p4 <= 379
 R166: - 36 x1,4_36 - p1 + p4 >= 0
 R167: 356 x1,4_36 - p1 + p4 <= 392
 R168: - 59 x1,4_59 - p1 + p4 >= 0
 R169: 356 x1,4_59 - p1 + p4 <= 415
 R170: - 60 x1,4_60 - p1 + p4 >= 0
 R171: 356 x1,4_60 - p1 + p4 <= 416
 R172: - 65 x1,4_65 - p1 + p4 >= 0
 R173: 356 x1,4_65 - p1 + p4 <= 421
 R174: - 76 x1,4_76 - p1 + p4 >= 0
 R175: 356 x1,4_76 - p1 + p4 <= 432
 R176: p1 - p5 <= -1
 R177: - 6 x1,5_6 - p1 + p5 >= 0
 R178: 356 x1,5_6 - p1 + p5 <= 362
 R179: - 11 x1,5_11 - p1 + p5 >= 0
 R180: 356 x1,5_11 - p1 + p5 <= 367
 R181: - 20 x1,5_20 - p1 + p5 >= 0
 R182: 356 x1,5_20 - p1 + p5 <= 376
 R183: - 23 x1,5_23 - p1 + p5 >= 0
 R184: 356 x1,5_23 - p1 + p5 <= 379
 R185: - 36 x1,5_36 - p1 + p5 >= 0
 R186: 356 x1,5_36 - p1 + p5 <= 392
 R187: - 59 x1,5_59 - p1 + p5 >= 0
 R188: 356 x1,5_59 - p1 + p5 <= 415
 R189: - 60 x1,5_60 - p1 + p5 >= 0
 R190: 356 x1,5_60 - p1 + p5 <= 416
 R191: - 65 x1,5_65 - p1 + p5 >= 0
 R192: 356 x1,5_65 - p1 + p5 <= 421
 R193: - 76 x1,5_76 - p1 + p5 >= 0
 R194: 356 x1,5_76 - p1 + p5 <= 432
 R195: p2 - p3 <= -1
 R196: - 6 x2,3_6 - p2 + p3 >= 0
 R197: 356 x2,3_6 - p2 + p3 <= 362
 R198: - 11 x2,3_11 - p2 + p3 >= 0
 R199: 356 x2,3_11 - p2 + p3 <= 367
 R200: - 20 x2,3_20 - p2 + p3 >= 0
 R201: 356 x2,3_20 - p2 + p3 <= 376
 R202: - 23 x2,3_23 - p2 + p3 >= 0
 R203: 356 x2,3_23 - p2 + p3 <= 379
 R204: - 36 x2,3_36 - p2 + p3 >= 0
 R205: 356 x2,3_36 - p2 + p3 <= 392
 R206: - 59 x2,3_59 - p2 + p3 >= 0
 R207: 356 x2,3_59 - p2 + p3 <= 415
 R208: - 60 x2,3_60 - p2 + p3 >= 0
 R209: 356 x2,3_60 - p2 + p3 <= 416
 R210: - 65 x2,3_65 - p2 + p3 >= 0
 R211: 356 x2,3_65 - p2 + p3 <= 421
 R212: - 76 x2,3_76 - p2 + p3 >= 0
 R213: 356 x2,3_76 - p2 + p3 <= 432
 R214: p2 - p4 <= -1
 R215: - 6 x2,4_6 - p2 + p4 >= 0
 R216: 356 x2,4_6 - p2 + p4 <= 362
 R217: - 11 x2,4_11 - p2 + p4 >= 0
 R218: 356 x2,4_11 - p2 + p4 <= 367
 R219: - 20 x2,4_20 - p2 + p4 >= 0
 R220: 356 x2,4_20 - p2 + p4 <= 376
 R221: - 23 x2,4_23 - p2 + p4 >= 0
 R222: 356 x2,4_23 - p2 + p4 <= 379
 R223: - 36 x2,4_36 - p2 + p4 >= 0
 R224: 356 x2,4_36 - p2 + p4 <= 392
 R225: - 59 x2,4_59 - p2 + p4 >= 0
 R226: 356 x2,4_59 - p2 + p4 <= 415
 R227: - 60 x2,4_60 - p2 + p4 >= 0
 R228: 356 x2,4_60 - p2 + p4 <= 416
 R229: - 65 x2,4_65 - p2 + p4 >= 0
 R230: 356 x2,4_65 - p2 + p4 <= 421
 R231: - 76 x2,4_76 - p2 + p4 >= 0
 R232: 356 x2,4_76 - p2 + p4 <= 432
 R233: p2 - p5 <= -1
 R234: - 6 x2,5_6 - p2 + p5 >= 0
 R235: 356 x2,5_6 - p2 + p5 <= 362
 R236: - 11 x2,5_11 - p2 + p5 >= 0
 R237: 356 x2,5_11 - p2 + p5 <= 367
 R238: - 20 x2,5_20 - p2 + p5 >= 0
 R239: 356 x2,5_20 - p2 + p5 <= 376
 R240: - 23 x2,5_23 - p2 + p5 >= 0
 R241: 356 x2,5_23 - p2 + p5 <= 379
 R242: - 36 x2,5_36 - p2 + p5 >= 0
 R243: 356 x2,5_36 - p2 + p5 <= 392
 R244: - 59 x2,5_59 - p2 + p5 >= 0
 R245: 356 x2,5_59 - p2 + p5 <= 415
 R246: - 60 x2,5_60 - p2 + p5 >= 0
 R247: 356 x2,5_60 - p2 + p5 <= 416
 R248: - 65 x2,5_65 - p2 + p5 >= 0
 R249: 356 x2,5_65 - p2 + p5 <= 421
 R250: - 76 x2,5_76 - p2 + p5 >= 0
 R251: 356 x2,5_76 - p2 + p5 <= 432
 R252: p3 - p4 <= -1
 R253: - 6 x3,4_6 - p3 + p4 >= 0
 R254: 356 x3,4_6 - p3 + p4 <= 362
 R255: - 11 x3,4_11 - p3 + p4 >= 0
 R256: 356 x3,4_11 - p3 + p4 <= 367
 R257: - 20 x3,4_20 - p3 + p4 >= 0
 R258: 356 x3,4_20 - p3 + p4 <= 376
 R259: - 23 x3,4_23 - p3 + p4 >= 0
 R260: 356 x3,4_23 - p3 + p4 <= 379
 R261: - 36 x3,4_36 - p3 + p4 >= 0
 R262: 356 x3,4_36 - p3 + p4 <= 392
 R263: - 59 x3,4_59 - p3 + p4 >= 0
 R264: 356 x3,4_59 - p3 + p4 <= 415
 R265: - 60 x3,4_60 - p3 + p4 >= 0
 R266: 356 x3,4_60 - p3 + p4 <= 416
 R267: - 65 x3,4_65 - p3 + p4 >= 0
 R268: 356 x3,4_65 - p3 + p4 <= 421
 R269: - 76 x3,4_76 - p3 + p4 >= 0
 R270: 356 x3,4_76 - p3 + p4 <= 432
 R271: p3 - p5 <= -1
 R272: - 6 x3,5_6 - p3 + p5 >= 0
 R273: 356 x3,5_6 - p3 + p5 <= 362
 R274: - 11 x3,5_11 - p3 + p5 >= 0
 R275: 356 x3,5_11 - p3 + p5 <= 367
 R276: - 20 x3,5_20 - p3 + p5 >= 0
 R277: 356 x3,5_20 - p3 + p5 <= 376
 R278: - 23 x3,5_23 - p3 + p5 >= 0
 R279: 356 x3,5_23 - p3 + p5 <= 379
 R280: - 36 x3,5_36 - p3 + p5 >= 0
 R281: 356 x3,5_36 - p3 + p5 <= 392
 R282: - 59 x3,5_59 - p3 + p5 >= 0
 R283: 356 x3,5_59 - p3 + p5 <= 415
 R284: - 60 x3,5_60 - p3 + p5 >= 0
 R285: 356 x3,5_60 - p3 + p5 <= 416
 R286: - 65 x3,5_65 - p3 + p5 >= 0
 R287: 356 x3,5_65 - p3 + p5 <= 421
 R288: - 76 x3,5_76 - p3 + p5 >= 0
 R289: 356 x3,5_76 - p3 + p5 <= 432
 R290: p4 - p5 <= -1
 R291: - 6 x4,5_6 - p4 + p5 >= 0
 R292: 356 x4,5_6 - p4 + p5 <= 362
 R293: - 11 x4,5_11 - p4 + p5 >= 0
 R294: 356 x4,5_11 - p4 + p5 <= 367
 R295: - 20 x4,5_20 - p4 + p5 >= 0
 R296: 356 x4,5_20 - p4 + p5 <= 376
 R297: - 23 x4,5_23 - p4 + p5 >= 0
 R298: 356 x4,5_23 - p4 + p5 <= 379
 R299: - 36 x4,5_36 - p4 + p5 >= 0
 R300: 356 x4,5_36 - p4 + p5 <= 392
 R301: - 59 x4,5_59 - p4 + p5 >= 0
 R302: 356 x4,5_59 - p4 + p5 <= 415
 R303: - 60 x4,5_60 - p4 + p5 >= 0
 R304: 356 x4,5_60 - p4 + p5 <= 416
 R305: - 65 x4,5_65 - p4 + p5 >= 0
 R306: 356 x4,5_65 - p4 + p5 <= 421
 R307: - 76 x4,5_76 - p4 + p5 >= 0
 R308: 356 x4,5_76 - p4 + p5 <= 432
Bounds
Binaries
 x0,1_6 x0,1_11 x0,1_20 x0,1_23 x0,1_36 x0,1_59 x0,1_60 x0,1_65 x0,1_76
 x0,2_6 x0,2_11 x0,2_20 x0,2_23 x0,2_36 x0,2_59 x0,2_60 x0,2_65 x0,2_76
 x0,3_6 x0,3_11 x0,3_20 x0,3_23 x0,3_36 x0,3_59 x0,3_60 x0,3_65 x0,3_76
 x0,4_6 x0,4_11 x0,4_20 x0,4_23 x0,4_36 x0,4_59 x0,4_60 x0,4_65 x0,4_76
 x0,5_6 x0,5_11 x0,5_20 x0,5_23 x0,5_36 x0,5_59 x0,5_60 x0,5_65 x0,5_76
 x1,2_6 x1,2_11 x1,2_20 x1,2_23 x1,2_36 x1,2_59 x1,2_60 x1,2_65 x1,2_76
 x1,3_6 x1,3_11 x1,3_20 x1,3_23 x1,3_36 x1,3_59 x1,3_60 x1,3_65 x1,3_76
 x1,4_6 x1,4_11 x1,4_20 x1,4_23 x1,4_36 x1,4_59 x1,4_60 x1,4_65 x1,4_76
 x1,5_6 x1,5_11 x1,5_20 x1,5_23 x1,5_36 x1,5_59 x1,5_60 x1,5_65 x1,5_76
 x2,3_6 x2,3_11 x2,3_20 x2,3_23 x2,3_36 x2,3_59 x2,3_60 x2,3_65 x2,3_76
 x2,4_6 x2,4_11 x2,4_20 x2,4_23 x2,4_36 x2,4_59 x2,4_60 x2,4_65 x2,4_76
 x2,5_6 x2,5_11 x2,5_20 x2,5_23 x2,5_36 x2,5_59 x2,5_60 x2,5_65 x2,5_76
 x3,4_6 x3,4_11 x3,4_20 x3,4_23 x3,4_36 x3,4_59 x3,4_60 x3,4_65 x3,4_76
 x3,5_6 x3,5_11 x3,5_20 x3,5_23 x3,5_36 x3,5_59 x3,5_60 x3,5_65 x3,5_76
 x4,5_6 x4,5_11 x4,5_20 x4,5_23 x4,5_36 x4,5_59 x4,5_60 x4,5_65 x4,5_76
Generals
 p0 p1 p2 p3 p4 p5
End
